9, 10, 14, 24, 25, 27, 39, 40, 44, 47, 49, 54, 55, 56, 57, 60, 61, 66, 70, 75, 76, 79, 80, 81, 82, 84, 87, 95, 96, 97, 98
2, 4, 5, 7, 9, 11, 12, 15, 18, 23, 24, 26, 27, 31, 32, 36, 39, 46, 47, 50, 52, 55, 62, 64, 66, 69, 71, 74, 76, 84, 86, 87, 93, 96, 98
2, 4, 5, 6, 13, 23, 24, 25, 27, 28, 36, 38, 44, 50, 54, 58, 59, 60, 64, 70, 73, 75, 78, 79, 83, 90
3, 4, 5, 6, 8, 11, 13, 15, 16, 17, 20, 23, 26, 28, 34, 35, 40, 41, 42, 43, 44, 46, 49, 50, 53, 55, 60, 68, 77, 84, 85, 99
6, 8, 10, 12, 16, 25, 26, 28, 29, 34, 35, 51, 55, 57, 58, 59, 60, 78, 86, 89
33, 98, 36, 7, 72, 45, 48, 86, 55, 24, 90, 59, 28
33, 1, 70, 73, 10, 44, 21, 53, 86, 91, 28
1, 2, 17, 19, 20, 21, 22, 29, 32, 36, 37, 40, 42, 44, 46, 47, 49, 52, 55, 56, 57, 58, 61, 62, 63, 68, 73, 76, 78, 79, 81, 84, 86, 87, 88, 89, 90, 91, 94, 96, 99
1, 5, 9, 14, 15, 16, 20, 21, 22, 24, 26, 30, 32, 33, 34, 35, 36, 44, 45, 46, 48, 58, 59, 64, 66, 67, 68, 70, 71, 75, 77, 78, 79, 80, 82, 84, 87, 89, 90, 94, 96, 97
32, 65, 98, 37, 7, 40, 9, 49, 19, 53, 21, 93, 30
3, 6, 7, 8, 12, 13, 14, 17, 19, 20, 22, 23, 24, 26, 28, 33, 35, 36, 37, 38, 43, 44, 45, 46, 47, 48, 54, 56, 57, 59, 60, 62, 63, 66, 68, 72, 74, 75, 83, 86, 90, 93
3, 4, 5, 6, 8, 9, 13, 15, 21, 22, 25, 27, 28, 33, 35, 36, 40, 43, 45, 47, 48, 53, 54, 56, 59, 62, 64, 65, 66, 68, 69, 74, 77, 78, 81, 82, 83, 84, 86, 87, 88, 90, 91, 99
1, 7, 11, 15, 16, 24, 25, 28, 32, 34, 37, 42, 44, 49, 51, 54, 59, 60, 61, 62, 65, 66, 70, 71, 72, 77, 78, 79, 81, 82, 84, 85, 86, 93, 95, 98
1, 12, 13, 14, 17, 24, 26, 31, 39, 41, 46, 49, 57, 58, 62, 65, 67, 70, 73, 74, 78, 79, 83, 86, 87, 89, 92, 94, 95
2, 6, 9, 11, 14, 16, 18, 21, 27, 29, 31, 32, 33, 34, 35, 36, 37, 38, 39, 41, 43, 44, 47, 49, 51, 55, 56, 57, 58, 59, 60, 67, 68, 70, 71, 74, 79, 86, 87, 92, 94, 95
1, 3, 4, 7, 9, 10, 11, 20, 28, 36, 50, 52, 72, 74, 76, 78, 81, 87, 93, 94, 95, 97
6, 9, 11, 12, 14, 17, 22, 29, 33, 34, 36, 37, 38, 46, 51, 58, 61, 63, 71, 74, 79, 81, 89, 93, 96, 97
3, 5, 10, 16, 17, 19, 26, 36, 37, 38, 39, 42, 44, 46, 47, 49, 50, 63, 66, 68, 69, 74, 75, 76, 77, 81, 96, 97
1, 4, 6, 8, 11, 12, 13, 17, 19, 21, 22, 24, 26, 27, 28, 29, 31, 33, 38, 39, 40, 41, 42, 43, 45, 47, 50, 51, 52, 54, 62, 63, 68, 69, 70, 72, 75, 76, 78, 79, 80, 83, 85, 88, 91, 93, 94, 95, 96, 98
1, 3, 4, 5, 6, 9, 17, 20, 22, 24, 27, 29, 30, 31, 32, 33, 34, 35, 38, 43, 45, 49, 51, 53, 56, 58, 59, 60, 61, 62, 66, 67, 69, 70, 74, 76, 80, 81, 85, 91, 93, 95, 96, 97, 99
96, 2, 3, 8, 41, 42, 74, 9, 45, 46, 47, 44, 17, 18, 53, 25, 92
32, 6, 73, 9, 11, 50, 52, 86, 24, 25, 62
1, 4, 8, 9, 11, 19, 40, 41, 42, 46, 50, 51, 54, 60, 64, 67, 70, 72, 73, 81, 83, 88, 91, 97, 98
8, 9, 10, 11, 12, 14, 18, 19, 20, 21, 24, 27, 28, 31, 32, 34, 35, 37, 45, 47, 48, 50, 51, 53, 54, 58, 62, 64, 66, 69, 70, 72, 74, 75, 77, 80, 81, 86, 87, 89, 90, 92, 97, 98
4, 6, 11, 12, 21, 30, 33, 34, 38, 40, 44, 45, 47, 48, 49, 50, 53, 61, 62, 63, 64, 67, 71, 74, 76, 77, 80, 82, 85, 89, 90, 91, 93, 95
9, 10, 15, 18, 22, 23, 27, 32, 36, 38, 39, 45, 47, 51, 57, 66, 69, 70, 73, 78, 84, 87, 90, 92, 97, 98, 99
2, 7, 9, 11, 12, 13, 15, 22, 31, 35, 37, 40, 41, 47, 48, 51, 54, 56, 57, 61, 62, 63, 64, 65, 67, 74, 78, 81, 91, 93, 94, 97
66, 6, 55, 90, 95
4, 5, 6, 7, 12, 14, 15, 18, 33, 36, 38, 39, 40, 45, 48, 50, 52, 55, 64, 66, 70, 75, 77, 78, 85, 88, 89, 96, 97
2, 5, 15, 21, 24, 29, 38, 44, 46, 47, 53, 58, 60, 63, 70, 71, 79, 82, 92, 95, 96
1, 9, 10, 11, 13, 14, 22, 26, 28, 31, 32, 34, 39, 41, 42, 45, 49, 50, 51, 53, 54, 55, 65, 66, 67, 68, 69, 71, 78, 79, 82, 83, 85, 86, 87, 89, 90, 99
3, 4, 10, 12, 15, 16, 17, 21, 27, 32, 35, 36, 45, 49, 55, 56, 60, 67, 68, 69, 70, 72, 75, 81, 84, 90, 94, 95
2, 6, 7, 9, 11, 13, 14, 16, 17, 20, 21, 23, 26, 30, 31, 33, 36, 37, 38, 39, 41, 47, 49, 54, 56, 57, 58, 59, 60, 61, 63, 67, 68, 73, 74, 75, 77, 81, 83, 85, 87, 90, 95, 96, 99
1, 3, 4, 5, 10, 12, 15, 16, 21, 22, 23, 24, 25, 26, 30, 33, 36, 37, 38, 44, 49, 50, 52, 56, 61, 62, 66, 68, 70, 74, 83, 86, 87, 89, 90, 91, 92, 94, 95, 96
1, 65, 3, 67, 68, 44, 13, 45, 14, 16, 81, 49, 46, 21, 91, 61, 94
3, 37, 78, 47, 14
2, 6, 7, 8, 11, 15, 17, 22, 27, 30, 34, 36, 39, 42, 43, 49, 50, 51, 52, 54, 55, 59, 63, 70, 72, 73, 76, 77, 78, 79, 80, 83, 84, 85, 87, 89, 91, 94, 95, 97
67, 68, 47, 81, 19, 83, 94
4, 7, 10, 13, 21, 29, 33, 38, 43, 48, 50, 51, 56, 61, 69, 71, 76, 82, 84, 86, 88, 90, 92, 93, 94, 96
5, 8, 16, 20, 24, 27, 30, 31, 37, 42, 52, 54, 61, 65, 85, 86, 93, 94, 97
6, 7, 9, 10, 14, 15, 17, 18, 19, 21, 23, 24, 26, 27, 30, 31, 36, 40, 44, 45, 47, 49, 53, 55, 56, 57, 60, 63, 66, 70, 73, 76, 78, 79, 83, 84, 85, 86, 88, 91, 92, 93, 94
2, 7, 16, 32, 35, 38, 41, 44, 48, 51, 54, 57, 58, 62, 69, 75, 79, 81, 95, 96
12, 21, 26, 27, 31, 34, 35, 36, 38, 45, 46, 47, 50, 51, 55, 57, 66, 72, 77, 78, 81, 87, 91, 97, 98, 99
1, 3, 4, 5, 6, 8, 12, 13, 14, 15, 16, 18, 22, 26, 27, 30, 31, 32, 37, 39, 41, 43, 44, 46, 52, 54, 55, 58, 61, 64, 66, 68, 71, 74, 75, 76, 77, 83, 84, 91, 94, 95, 97, 99
4, 5, 9, 15, 16, 18, 22, 23, 31, 32, 38, 39, 43, 50, 52, 55, 56, 58, 60, 62, 64, 65, 66, 67, 68, 69, 71, 74, 78, 79, 81, 88, 92, 93, 94, 95
1, 2, 3, 5, 6, 7, 13, 14, 15, 17, 18, 21, 23, 25, 26, 27, 28, 30, 34, 41, 52, 53, 59, 66, 69, 70, 75, 80, 83, 84, 85, 86, 89, 92, 95, 97, 98, 99
98, 39, 74, 15, 53
2, 3, 17, 18, 20, 22, 25, 27, 31, 33, 37, 40, 44, 61, 69, 75, 76, 79, 86, 96
1, 3, 4, 6, 7, 8, 10, 11, 14, 18, 20, 22, 26, 28, 29, 31, 35, 37, 38, 40, 41, 42, 49, 50, 53, 54, 58, 62, 63, 65, 66, 68, 70, 77, 80, 82, 85, 86, 87, 88, 89, 91, 93, 94, 95, 99
2, 3, 4, 6, 12, 20, 21, 22, 23, 24, 26, 34, 35, 41, 42, 43, 50, 57, 60, 69, 74, 75, 77, 82, 85, 88, 90, 91, 93, 95, 96
3, 5, 6, 8, 9, 11, 12, 14, 16, 20, 22, 23, 25, 27, 28, 30, 32, 35, 40, 41, 43, 44, 45, 46, 47, 49, 50, 52, 53, 57, 60, 66, 67, 68, 69, 73, 75, 79, 82, 84, 85, 87, 91, 94, 97, 98, 99
1, 5, 6, 11, 12, 13, 14, 15, 18, 21, 23, 25, 29, 32, 40, 44, 45, 46, 50, 53, 54, 56, 59, 61, 62, 67, 68, 70, 72, 76, 80, 86, 93, 94, 95, 96, 97, 98
3, 5, 6, 7, 10, 16, 17, 19, 25, 27, 28, 31, 35, 38, 39, 42, 43, 47, 52, 53, 54, 57, 58, 62, 64, 66, 67, 69, 70, 74, 78, 79, 85, 90, 91, 94, 96, 99
97, 2, 35, 1, 39, 43, 78, 48, 51, 21, 62, 30
1, 4, 8, 14, 15, 17, 29, 37, 38, 39, 41, 42, 43, 44, 46, 53, 54, 59, 61, 62, 63, 64, 67, 71, 72, 74, 76, 81, 86, 87, 92, 93
1, 3, 4, 5, 7, 10, 15, 16, 23, 25, 27, 31, 39, 40, 41, 44, 51, 55, 62, 64, 65, 69, 70, 71, 72, 75, 79, 80, 81, 85, 86, 89, 91, 98, 99
64, 33, 65, 32, 6, 73, 46, 15, 53, 58, 60
2, 7, 8, 9, 13, 14, 23, 26, 28, 29, 31, 32, 33, 35, 36, 37, 39, 41, 42, 43, 46, 47, 48, 51, 52, 54, 57, 60, 63, 65, 66, 68, 77, 83, 84, 87, 88, 89, 91, 93, 95, 98
1, 2, 4, 5, 6, 7, 10, 11, 12, 13, 14, 15, 17, 23, 24, 26, 27, 29, 32, 34, 36, 40, 41, 46, 47, 50, 52, 53, 55, 56, 57, 58, 60, 64, 66, 69, 72, 75, 76, 78, 80, 86, 87, 88, 92, 93, 94, 98, 99
1, 34, 98, 36, 37, 71, 75, 60, 47, 81, 84, 20, 21, 89, 91, 92
33, 35, 36, 74, 42, 76, 44, 78, 50, 82, 87, 90, 91, 60, 61, 30
1, 2, 4, 5, 8, 10, 11, 12, 15, 16, 17, 18, 22, 26, 28, 29, 31, 32, 34, 35, 38, 41, 46, 50, 53, 54, 56, 58, 59, 60, 62, 67, 70, 72, 76, 81, 83, 84, 87, 88, 90, 93, 96
4, 7, 76, 15, 20, 22, 60, 31
64, 97, 35, 99, 39, 72, 12, 76, 45, 47, 49, 21, 57, 58, 91
2, 7, 8, 10, 15, 16, 17, 23, 25, 33, 34, 36, 40, 41, 42, 45, 47, 48, 49, 50, 54, 56, 63, 65, 67, 69, 70, 74, 87, 89, 96, 97
5, 10, 12, 17, 18, 23, 36, 40, 46, 47, 58, 64, 66, 77, 78, 80, 82, 84, 88, 91
32, 1, 66, 69, 39, 74, 43, 44, 79, 16, 48, 53, 22, 85, 58, 27, 28, 30
2, 5, 10, 12, 16, 17, 19, 22, 26, 27, 28, 33, 39, 40, 43, 44, 46, 47, 50, 51, 52, 54, 60, 62, 63, 66, 72, 74, 77, 78, 79, 80, 83, 87, 91, 98
1, 3, 11, 17, 18, 22, 24, 27, 28, 35, 36, 38, 39, 40, 44, 48, 51, 54, 55, 56, 57, 61, 65, 68, 71, 72, 75, 84, 87, 88, 89, 90
2, 3, 4, 5, 7, 8, 11, 12, 13, 14, 18, 21, 22, 23, 24, 25, 26, 29, 31, 33, 34, 36, 38, 39, 40, 44, 48, 50, 52, 53, 56, 58, 60, 62, 65, 66, 67, 68, 69, 74, 81, 82, 83, 84, 89, 91, 93, 95, 99
1, 4, 9, 14, 15, 19, 22, 24, 25, 27, 29, 31, 32, 33, 38, 43, 44, 49, 58, 67, 71, 74, 77, 82, 88, 91, 94, 99
4, 6, 10, 12, 13, 16, 19, 23, 38, 45, 50, 52, 53, 56, 57, 62, 64, 69, 71, 75, 81, 84, 86, 87, 89, 90, 96
2, 4, 6, 8, 10, 14, 15, 18, 20, 25, 33, 35, 36, 39, 43, 47, 49, 54, 59, 62, 65, 66, 74, 75, 81, 84, 89, 92, 97
1, 97, 99, 36, 37, 42, 76, 83, 20, 24, 91, 92, 31
4, 16, 17, 18, 26, 29, 30, 35, 46, 48, 50, 55, 56, 57, 61, 65, 66, 67, 69, 71, 76, 83, 85, 89, 90, 93, 95, 99
2, 3, 4, 20, 23, 24, 26, 29, 38, 39, 41, 42, 45, 50, 54, 59, 61, 63, 68, 70, 73, 74, 79, 84, 89, 90, 91, 93, 95, 96
97, 36, 69, 70, 27, 10, 91, 44, 20, 21, 54, 59
6, 8, 12, 14, 20, 21, 29, 40, 44, 45, 56, 61, 65, 66, 74, 79, 80, 93, 97
3, 5, 6, 13, 16, 17, 25, 27, 29, 34, 35, 38, 42, 51, 54, 55, 56, 57, 59, 63, 64, 66, 67, 68, 69, 72, 75, 79, 82, 86, 87, 88, 90, 91, 93, 98
64, 65, 34, 36, 43, 46, 16, 18, 83, 30, 89, 90, 92, 62
6, 14, 16, 17, 18, 19, 21, 40, 43, 49, 66, 68, 72, 73, 74, 77, 80, 81, 86, 87, 88, 89, 92, 93, 95, 96, 99
99, 68, 5, 10, 85, 86, 26
1, 6, 8, 9, 10, 22, 24, 26, 29, 30, 31, 32, 34, 35, 37, 39, 44, 48, 49, 54, 59, 60, 66, 67, 68, 70, 71, 72, 75, 79, 82, 88, 89, 90, 92, 95, 99
5, 8, 13, 17, 19, 26, 27, 29, 31, 33, 35, 37, 40, 41, 42, 45, 46, 54, 56, 57, 59, 64, 65, 67, 68, 69, 70, 71, 72, 73, 74, 75, 77, 79, 80, 81, 82, 86, 89, 91, 95, 96, 97
33, 5, 8, 41, 42, 52, 23
1, 4, 5, 11, 14, 15, 20, 27, 30, 32, 35, 36, 40, 42, 52, 56, 57, 58, 59, 60, 62, 66, 67, 68, 69, 72, 73, 76, 82, 83, 88, 92, 93, 94, 95
2, 4, 13, 19, 25, 29, 31, 35, 36, 37, 40, 41, 46, 47, 49, 50, 51, 53, 56, 60, 61, 63, 64, 66, 78, 87, 88, 89, 90, 94, 98
1, 6, 12, 14, 17, 21, 24, 25, 29, 31, 32, 33, 34, 41, 42, 45, 46, 48, 49, 50, 52, 53, 57, 59, 62, 63, 65, 69, 77, 82, 86, 87, 91, 92, 95, 98
32, 34, 5, 38, 71, 84, 21, 93, 95
1, 4, 6, 7, 9, 11, 12, 13, 14, 17, 21, 24, 30, 34, 38, 39, 40, 43, 53, 55, 56, 57, 59, 60, 64, 67, 69, 74, 75, 80, 82, 84, 87, 90, 93, 99
1, 8, 14, 15, 22, 23, 24, 26, 28, 29, 32, 35, 42, 44, 47, 50, 58, 62, 64, 65, 69, 85, 93, 94, 97, 98
37, 11, 77, 52, 94, 31
7, 8, 10, 11, 12, 13, 17, 18, 25, 26, 33, 36, 38, 40, 43, 45, 46, 48, 52, 53, 54, 55, 56, 59, 60, 61, 63, 64, 65, 68, 72, 73, 74, 75, 77, 78, 79, 80, 81, 83, 85, 93, 94, 96, 97, 99
3, 6, 13, 27, 32, 33, 34, 35, 55, 57, 58, 60, 61, 66, 73, 76, 78, 80, 81, 88, 89, 93, 95
15, 17, 18, 20, 23, 24, 25, 26, 27, 29, 32, 34, 35, 37, 39, 41, 42, 43, 46, 49, 51, 53, 54, 55, 57, 60, 61, 64, 66, 68, 69, 72, 73, 74, 75, 76, 78, 79, 86, 87, 88, 89, 90, 91, 93, 94, 97, 99
11, 13, 22, 24, 27, 31, 33, 42, 47, 49, 52, 54, 55, 59, 61, 63, 64, 67, 68, 76, 88, 89, 97, 99
1, 3, 6, 8, 9, 13, 14, 17, 32, 33, 34, 39, 44, 46, 49, 50, 55, 57, 59, 61, 62, 66, 71, 72, 73, 85, 86, 87
1, 3, 5, 9, 13, 14, 20, 21, 23, 24, 26, 27, 29, 32, 35, 39, 40, 42, 44, 45, 49, 53, 54, 57, 60, 62, 65, 66, 67, 68, 69, 74, 75, 76, 79, 80, 81, 83, 85, 87, 90, 91, 92, 93, 94, 95
4, 7, 9, 10, 11, 14, 15, 16, 22, 23, 24, 25, 27, 28, 29, 31, 37, 43, 45, 55, 56, 57, 58, 60, 63, 67, 70, 71, 72, 74, 75, 80, 82, 83, 86, 89, 90, 91, 92, 93, 96, 98
2, 4, 5, 7, 10, 12, 14, 18, 20, 22, 23, 24, 25, 30, 33, 35, 40, 42, 46, 47, 50, 52, 53, 56, 57, 62, 66, 68, 69, 70, 72, 74, 75, 79, 81, 82, 84, 86, 87, 88, 89, 92, 93, 95, 97